param n := 120;
param c := 10000
param : V : p w :=
   0	 100	 357
   1	  27	 271
   2	  40	 372
   3	  99	 481
   4	  83	 251
   5	  63	 268
   6	  23	 429
   7	  62	 285
   8	  48	 286
   9	  81	 454
  10	  75	 257
  11	  90	 289
  12	  14	 398
  13	  59	 268
  14	   2	 334
  15	  15	 382
  16	  58	 264
  17	  11	 354
  18	  79	 427
  19	  76	 251
  20	  67	 322
  21	  88	 476
  22	  57	 251
  23	  13	 273
  24	  44	 364
  25	  29	 276
  26	   1	 360
  27	  39	 406
  28	  17	 290
  29	  22	 304
  30	  87	 351
  31	  96	 280
  32	  75	 369
  33	 100	 418
  34	  53	 270
  35	   6	 312
  36	  85	 375
  37	  42	 309
  38	  54	 316
  39	  85	 411
  40	  48	 288
  41	  11	 301
  42	  83	 424
  43	  91	 261
  44	  64	 315
  45	  44	 462
  46	  94	 257
  47	   3	 281
  48	  16	 411
  49	  40	 284
  50	  77	 305
  51	  33	 443
  52	  94	 268
  53	  98	 289
  54	  64	 370
  55	  12	 284
  56	  44	 346
  57	  76	 460
  58	  73	 251
  59	  30	 289
  60	  14	 397
  61	  73	 257
  62	  89	 346
  63	  19	 379
  64	  64	 296
  65	  18	 325
  66	  34	 447
  67	  83	 269
  68	   1	 284
  69	  69	 461
  70	  52	 259
  71	  14	 280
  72	  32	 494
  73	  44	 251
  74	  43	 255
  75	  37	 483
  76	  42	 250
  77	  95	 267
  78	  97	 475
  79	  63	 258
  80	  48	 267
  81	   4	 402
  82	   8	 277
  83	  65	 321
  84	  50	 395
  85	  31	 269
  86	  44	 336
  87	  53	 436
  88	  31	 255
  89	  45	 309
  90	  22	 418
  91	  63	 285
  92	  86	 297
  93	  68	 408
  94	   2	 266
  95	  68	 326
  96	   5	 358
  97	  88	 264
  98	  88	 378
  99	  70	 471
 100	  86	 261
 101	  76	 268
 102	  39	 460
 103	  33	 250
 104	  75	 290
 105	  55	 368
 106	   6	 315
 107	  11	 317
 108	  92	 430
 109	  82	 269
 110	  68	 301
 111	   4	 477
 112	  65	 252
 113	  40	 271
 114	   7	 449
 115	  76	 263
 116	  87	 288
 117	  88	 483
 118	  95	 254
 119	  35	 263
;

set E :=
   0	   8
   0	  28
   0	  30
   0	  62
   0	  68
   0	  78
   0	  81
   0	  87
   0	 111
   1	   6
   1	   9
   1	  13
   1	  54
   1	  77
   1	  86
   1	  90
   1	  94
   1	 110
   1	 113
   2	   4
   2	  14
   2	  24
   2	  43
   2	 103
   3	  16
   3	  30
   3	  31
   3	  43
   3	  61
   3	  66
   3	  69
   3	  87
   3	 104
   3	 108
   3	 112
   4	   8
   4	  10
   4	  29
   4	  34
   4	  38
   4	  48
   4	  55
   4	  65
   4	 107
   5	  27
   5	  29
   5	  44
   5	  57
   5	  69
   5	  79
   5	  96
   5	 102
   5	 110
   5	 119
   6	  14
   6	  23
   6	  55
   6	  80
   6	  86
   6	  91
   7	   9
   7	  14
   7	  47
   7	  58
   7	  60
   7	  71
   7	  89
   7	 105
   7	 110
   7	 117
   7	 118
   8	  16
   8	  33
   8	  59
   8	  66
   8	  69
   8	  74
   8	  94
   8	 105
   9	  11
   9	  23
   9	  33
   9	  50
   9	  58
   9	  66
   9	  76
   9	  78
   9	 103
   9	 106
   9	 117
  10	  19
  10	  24
  10	  30
  10	  31
  10	  39
  10	  51
  10	  54
  10	  57
  10	  64
  10	  65
  10	  70
  10	  78
  10	  82
  11	  16
  11	  17
  11	  28
  11	  30
  11	  42
  11	  74
  11	  81
  11	  85
  11	 102
  11	 103
  11	 104
  11	 108
  12	  42
  12	  72
  12	  79
  12	  81
  12	  82
  12	 111
  12	 117
  12	 118
  13	  21
  13	  24
  13	  42
  13	  55
  13	  56
  13	  59
  13	  86
  13	  98
  13	 100
  13	 118
  13	 119
  14	  20
  14	  22
  14	  25
  14	  38
  14	  52
  14	  77
  14	  89
  14	 108
  15	  43
  15	  44
  15	  45
  15	  69
  15	  78
  15	 106
  15	 108
  15	 112
  16	  19
  16	  30
  16	  38
  16	  40
  16	  53
  16	  56
  16	  57
  16	  68
  16	  87
  16	  91
  16	  98
  16	 107
  16	 109
  16	 117
  17	  21
  17	  37
  17	  44
  17	  82
  17	  97
  17	 102
  17	 112
  18	  29
  18	  39
  18	  56
  18	  69
  18	  83
  18	 102
  18	 104
  18	 119
  19	  29
  19	  45
  19	  55
  19	  56
  19	  59
  19	  64
  19	  69
  19	  86
  19	  91
  19	  94
  19	  99
  20	  49
  20	  58
  20	  65
  20	  71
  20	  80
  20	  85
  20	  92
  20	 106
  20	 113
  20	 114
  21	  23
  21	  33
  21	  47
  21	  55
  21	  60
  21	  73
  21	  79
  21	  81
  21	 105
  21	 116
  22	  23
  22	  32
  22	  46
  22	  47
  22	  50
  22	  53
  22	  69
  22	  70
  22	  91
  22	  92
  22	  96
  22	 110
  23	  24
  23	  44
  23	  49
  23	  52
  24	  50
  24	  53
  24	  68
  24	  72
  24	  76
  24	 115
  25	  26
  25	  38
  25	  43
  25	  49
  25	  50
  25	  59
  25	  62
  25	  81
  25	  83
  25	  86
  25	 107
  25	 113
  25	 115
  25	 116
  25	 119
  26	  27
  26	  51
  26	  58
  26	  64
  26	  75
  26	  94
  27	  31
  27	  59
  27	  61
  27	  89
  27	 100
  27	 103
  27	 104
  27	 105
  27	 113
  28	  37
  28	  40
  28	  50
  28	  53
  28	  56
  28	  61
  28	  62
  28	  76
  28	  79
  28	  81
  28	  87
  28	  90
  28	  93
  28	  97
  28	 100
  28	 101
  29	  30
  29	  34
  29	  36
  29	  41
  29	  53
  29	  72
  29	  77
  29	  95
  29	 115
  30	  40
  30	  48
  30	  50
  30	  64
  30	 107
  30	 115
  31	  36
  31	  41
  31	  46
  31	  49
  31	  57
  31	  64
  31	  94
  31	 100
  31	 107
  31	 115
  32	  54
  32	  57
  32	  58
  32	  62
  32	  74
  32	  94
  32	 104
  32	 111
  33	  38
  33	  68
  33	  71
  33	  77
  33	  83
  33	  84
  33	  88
  33	  95
  33	 109
  33	 114
  33	 115
  34	  53
  34	  60
  34	  76
  34	  79
  34	 100
  34	 106
  34	 117
  34	 118
  35	  42
  35	  46
  35	  55
  35	  59
  35	  75
  35	  80
  35	  90
  35	  95
  35	  97
  35	  98
  35	 119
  36	  44
  36	  48
  36	  61
  36	  86
  36	  90
  36	  97
  36	 105
  36	 119
  37	  39
  37	  46
  37	  50
  37	  55
  37	  57
  37	  61
  37	  65
  37	  73
  37	  83
  37	 101
  38	  41
  38	  47
  38	  57
  38	  89
  38	  98
  38	 109
  38	 111
  38	 112
  38	 113
  38	 114
  38	 118
  39	  45
  39	  56
  39	  60
  39	  66
  39	  71
  39	  81
  39	  82
  39	  88
  40	  45
  40	  51
  40	  55
  40	  58
  40	  60
  40	  70
  40	 108
  41	  80
  41	  85
  41	  91
  41	  95
  41	 112
  41	 114
  42	  51
  42	  59
  42	  65
  42	  83
  42	  84
  42	  94
  42	  95
  42	  99
  43	  69
  43	  83
  43	  86
  43	  90
  43	 105
  43	 107
  43	 110
  44	  52
  44	  53
  44	  92
  44	  95
  44	 118
  45	  62
  45	  69
  45	  72
  45	  89
  45	  91
  45	  98
  45	 102
  45	 108
  46	  50
  46	  53
  46	  62
  46	  82
  46	  90
  46	 107
  46	 116
  47	  78
  47	  79
  47	  80
  47	  90
  47	  91
  47	  92
  47	  99
  48	  70
  48	  74
  48	  77
  48	  78
  48	  79
  48	  89
  48	 107
  49	  50
  49	  64
  49	  77
  49	  79
  49	  93
  49	 115
  49	 118
  50	  51
  50	  54
  50	  57
  50	  71
  50	  75
  50	  78
  50	  83
  50	 100
  50	 106
  50	 112
  51	  78
  51	  99
  51	 114
  51	 115
  52	  58
  52	  64
  52	  85
  52	  89
  52	  95
  52	 105
  52	 109
  52	 110
  52	 115
  53	  57
  53	  67
  53	  68
  53	  70
  53	  71
  53	  95
  53	  99
  53	 106
  53	 107
  53	 112
  54	  55
  54	  57
  54	  65
  54	  66
  54	  68
  54	 102
  54	 104
  55	  75
  55	  79
  55	  97
  55	 103
  55	 106
  55	 114
  56	  67
  56	  74
  56	  83
  56	  84
  56	  92
  56	  97
  56	 102
  57	  71
  57	  82
  57	  84
  57	  91
  57	  95
  57	 115
  57	 117
  58	  68
  58	  85
  58	  88
  58	  94
  58	  96
  58	  98
  58	 108
  58	 110
  59	  76
  59	  96
  60	  67
  60	  84
  60	  88
  60	  89
  60	 110
  60	 115
  61	  62
  61	  75
  61	  81
  61	  86
  61	  91
  61	  95
  61	  98
  61	 100
  61	 103
  61	 112
  62	  71
  62	  72
  62	  77
  62	  83
  62	  87
  62	  99
  62	 104
  62	 110
  62	 114
  62	 119
  63	  85
  63	  88
  63	 100
  63	 105
  63	 107
  63	 109
  64	  82
  64	  88
  64	  89
  64	  96
  64	  97
  64	 103
  64	 115
  65	  68
  65	  73
  65	  85
  65	  86
  65	 102
  65	 106
  65	 110
  66	  72
  66	  95
  66	  96
  66	  98
  66	 106
  66	 107
  67	  68
  67	  75
  67	  79
  67	  86
  67	 103
  67	 105
  68	  71
  68	  84
  68	  87
  68	  97
  68	 101
  68	 106
  69	  85
  69	  89
  69	  92
  69	  94
  69	  97
  69	 116
  70	  94
  70	  96
  70	 103
  70	 114
  71	  72
  71	  80
  71	  99
  71	 109
  71	 112
  72	  77
  72	  82
  72	  86
  72	  95
  72	 105
  72	 106
  72	 119
  73	  77
  73	  79
  73	  82
  73	  83
  73	  85
  73	  90
  73	 109
  73	 110
  73	 113
  74	  79
  74	  80
  74	  93
  74	  95
  74	 100
  75	  89
  75	  95
  75	 107
  75	 108
  75	 110
  75	 118
  76	 100
  76	 109
  76	 119
  77	  83
  77	  85
  77	  87
  77	 119
  78	  85
  78	  86
  78	  97
  78	 112
  78	 113
  79	  87
  79	 108
  79	 111
  79	 115
  80	  85
  80	  86
  80	  96
  80	  99
  80	 105
  80	 106
  80	 116
  81	  89
  81	  97
  81	 108
  81	 116
  81	 117
  81	 119
  82	  85
  82	  95
  82	 111
  83	  95
  84	 104
  84	 109
  84	 119
  85	  92
  85	 100
  85	 101
  85	 116
  86	  92
  86	 118
  87	  94
  87	 101
  87	 103
  87	 104
  87	 118
  88	  96
  88	 114
  88	 115
  89	  94
  89	 108
  89	 109
  89	 119
  90	  98
  90	 107
  91	 109
  91	 117
  92	 112
  92	 116
  92	 118
  93	  94
  93	 116
  94	  98
  94	 117
  95	  98
  96	 104
  96	 105
  97	 110
  97	 111
  97	 112
  98	 101
  98	 114
  99	 102
  99	 104
 100	 111
 100	 119
 101	 111
 101	 112
 102	 104
 102	 111
 102	 114
 102	 117
 104	 112
 104	 115
 104	 116
 105	 114
 107	 111
 107	 112
 108	 110
 109	 111
 110	 119
 111	 113
 111	 118
 113	 119
 116	 117
 117	 119
;
